*Heading
** Job name: nat_freq Model name: Model-1
** Generated by: Abaqus/CAE 2020
*Preprint, echo=NO, model=NO, history=NO, contact=NO
**
** PARTS
**
*Part, name=CB
*Node
      1,         -2.5,           0.
      2,          -2.,           0.
      3,         -1.5,           0.
      4,          -1.,           0.
      5,         -0.5,           0.
      6,           0.,           0.
      7,          0.5,           0.
      8,           1.,           0.
      9,          1.5,           0.
     10,           2.,           0.
     11,          2.5,           0.
     12,           3.,           0.
     13,          3.5,           0.
     14,           4.,           0.
     15,          4.5,           0.
     16,           5.,           0.
     17,          5.5,           0.
     18,           6.,           0.
     19,          6.5,           0.
     20,           7.,           0.
     21,          7.5,           0.
     22,           8.,           0.
     23,          8.5,           0.
     24,           9.,           0.
     25,          9.5,           0.
     26,          10.,           0.
     27,         10.5,           0.
     28,          11.,           0.
     29,         11.5,           0.
     30,          12.,           0.
     31,         12.5,           0.
     32,          13.,           0.
     33,         13.5,           0.
     34,          14.,           0.
     35,         14.5,           0.
     36,          15.,           0.
     37,         15.5,           0.
     38,          16.,           0.
     39,         16.5,           0.
     40,          17.,           0.
     41,         17.5,           0.
     42,          18.,           0.
     43,         18.5,           0.
     44,          19.,           0.
     45,         19.5,           0.
     46,          20.,           0.
     47,         20.5,           0.
     48,          21.,           0.
     49,         21.5,           0.
     50,          22.,           0.
     51,         22.5,           0.
     52,          23.,           0.
     53,         23.5,           0.
     54,          24.,           0.
     55,         24.5,           0.
     56,          25.,           0.
     57,         25.5,           0.
     58,          26.,           0.
     59,         26.5,           0.
     60,          27.,           0.
     61,         27.5,           0.
     62,          28.,           0.
     63,         28.5,           0.
     64,          29.,           0.
     65,         29.5,           0.
     66,          30.,           0.
     67,         30.5,           0.
     68,          31.,           0.
     69,         31.5,           0.
     70,          32.,           0.
     71,         32.5,           0.
     72,          33.,           0.
     73,         33.5,           0.
     74,          34.,           0.
     75,         34.5,           0.
     76,          35.,           0.
     77,         35.5,           0.
     78,          36.,           0.
     79,         36.5,           0.
     80,          37.,           0.
     81,         37.5,           0.
     82,          38.,           0.
     83,         38.5,           0.
     84,          39.,           0.
     85,         39.5,           0.
     86,          40.,           0.
     87,         40.5,           0.
     88,          41.,           0.
     89,         41.5,           0.
     90,          42.,           0.
     91,         42.5,           0.
     92,          43.,           0.
     93,         43.5,           0.
     94,          44.,           0.
     95,         44.5,           0.
     96,          45.,           0.
     97,         45.5,           0.
     98,          46.,           0.
     99,         46.5,           0.
    100,          47.,           0.
    101,         47.5,           0.
*Element, type=B21
  1,   1,   2
  2,   2,   3
  3,   3,   4
  4,   4,   5
  5,   5,   6
  6,   6,   7
  7,   7,   8
  8,   8,   9
  9,   9,  10
 10,  10,  11
 11,  11,  12
 12,  12,  13
 13,  13,  14
 14,  14,  15
 15,  15,  16
 16,  16,  17
 17,  17,  18
 18,  18,  19
 19,  19,  20
 20,  20,  21
 21,  21,  22
 22,  22,  23
 23,  23,  24
 24,  24,  25
 25,  25,  26
 26,  26,  27
 27,  27,  28
 28,  28,  29
 29,  29,  30
 30,  30,  31
 31,  31,  32
 32,  32,  33
 33,  33,  34
 34,  34,  35
 35,  35,  36
 36,  36,  37
 37,  37,  38
 38,  38,  39
 39,  39,  40
 40,  40,  41
 41,  41,  42
 42,  42,  43
 43,  43,  44
 44,  44,  45
 45,  45,  46
 46,  46,  47
 47,  47,  48
 48,  48,  49
 49,  49,  50
 50,  50,  51
 51,  51,  52
 52,  52,  53
 53,  53,  54
 54,  54,  55
 55,  55,  56
 56,  56,  57
 57,  57,  58
 58,  58,  59
 59,  59,  60
 60,  60,  61
 61,  61,  62
 62,  62,  63
 63,  63,  64
 64,  64,  65
 65,  65,  66
 66,  66,  67
 67,  67,  68
 68,  68,  69
 69,  69,  70
 70,  70,  71
 71,  71,  72
 72,  72,  73
 73,  73,  74
 74,  74,  75
 75,  75,  76
 76,  76,  77
 77,  77,  78
 78,  78,  79
 79,  79,  80
 80,  80,  81
 81,  81,  82
 82,  82,  83
 83,  83,  84
 84,  84,  85
 85,  85,  86
 86,  86,  87
 87,  87,  88
 88,  88,  89
 89,  89,  90
 90,  90,  91
 91,  91,  92
 92,  92,  93
 93,  93,  94
 94,  94,  95
 95,  95,  96
 96,  96,  97
 97,  97,  98
 98,  98,  99
 99,  99, 100
100, 100, 101
*Nset, nset=_PickedSet2, internal, generate
   1,  101,    1
*Elset, elset=_PickedSet2, internal, generate
   1,  100,    1
** Section: Section-1  Profile: Profile-Circular
*Beam Section, elset=_PickedSet2, material=Material-1, temperature=GRADIENTS, section=CIRC
0.5
0.,0.,-1.
*End Part
**  
**
** ASSEMBLY
**
*Assembly, name=Assembly
**  
*Instance, name=CB-1, part=CB
*End Instance
**  
*Nset, nset=_PickedSet4, internal, instance=CB-1
 1,
*End Assembly
** 
** MATERIALS
** 
*Material, name=Material-1
*Density
 1.2e-06,
*Elastic
70000., 0.3
** ----------------------------------------------------------------
** 
** STEP: Step-1
** 
*Step, name=Step-1, nlgeom=NO, perturbation
*Frequency, eigensolver=Lanczos, sim, acoustic coupling=on, normalization=mass
10, , , , , 
** 
** BOUNDARY CONDITIONS
** 
** Name: Fixed Type: Symmetry/Antisymmetry/Encastre
*Boundary
_PickedSet4, ENCASTRE
** 
** OUTPUT REQUESTS
** 
*Restart, write, frequency=0
** 
** FIELD OUTPUT: F-Output-1
** 
*Output, field, variable=PRESELECT
*End Step
